
        $ From http://www.csplib.org/Problems/prob009/data/helmut.pdf
        $ Problem number 127
        $ Sequence length : 25
        language ESSENCE' 1.0
        letting sizemaster be 400
        letting sizes be sequence(3,6,21,23,24,26,29,35,37,40,41,47,53,55,64,76,79,81,99,100,121,122,137,142,179)
        